artifact/ReVEAL/exp1_revsca/resyn3_64_output/64_64_U2_WT_JCA_Multgen_resyn3.txt
成功：dynphaseorderopt 运行完成。
峰值内存使用：45536 KB
总运行时间：16 秒
