artifact/ReVEAL/exp2_solver1/resyn3_new/resyn3_64_result_kissat/64_64_U2_WT_JCA_Multgen_resyn3.result
c ---- [ banner ] ------------------------------------------------------------
c
c Kissat SAT Solver
c 
c Copyright (c) 2021-2024 Armin Biere University of Freiburg
c Copyright (c) 2019-2021 Armin Biere Johannes Kepler University Linz
c 
c Version 4.0.1 43f02cf3e992cb44653b35e5cb26f93281552ae0
c gcc (Ubuntu 13.2.0-23ubuntu4) 13.2.0 -W -Wall -O3 -DNDEBUG
c Thu Sep 12 12:27:46 CEST 2024 Linux abryzen9 6.8.0-41-generic x86_64
c
c ---- [ parsing ] -----------------------------------------------------------
c
c opened and reading DIMACS file:
c
c   /data/artifact/AMulet2.0_artifact/exp4/cnf_resyn3_64/64_64_U2_WT_JCA_Multgen_resyn3.cnf
c
c parsed 'p cnf 28163 126668' header
c closing input after reading 2527134 bytes (2 MB)
c finished parsing after 0.02 seconds
c
c ---- [ options ] -----------------------------------------------------------
c
c --stable=0                       (different from default '1')
c
c ---- [ solving ] -----------------------------------------------------------
c
c  seconds switched rate     size/glue tier1  binary          remaining
c         MB reductions conflicts size  tier2    irredundant
c          level restarts redundant glue  trail          variables
c
c *  0.02 10 0 0 0  0 0   0   0 0.0 0 0 0 0 0% 4625 122041 28160 100%
c (  0.04 12 0 0 0  0 0   0   0 0.0 0 0 0 0 0% 4625 122041 28160 100%
c .  0.05 12 0 0 0  0 0   0   0 0.0 0 0 0 0 0% 4621 122041 28160 100%
c c  0.13 18 0 0 0  0 0   0   0 0.0 0 0 0 0 0% 4633 122040 28159 100%
c d  0.14 18 0 0 0  0 0   0   0 0.0 0 0 0 0 0% 4631 122040 28159 100%
c f  0.34 17 0 0 0  0 0   0   0 0.0 0 0 0 0 0% 10760 112676 31257 111%
c e  0.58 25 0 0 0  0 0   0   0 0.0 0 0 0 0 0% 3709 122452 21818 77%
c )  0.58 25 0 0 0  0 0   0   0 0.0 0 0 0 0 0% 3709 122452 21818 77%
c {  0.60 25 0 0 0  0 0   0   0 0.0 0 0 2 6 0% 3709 122452 21818 77%
c -  0.70 25 111 0 1 260 29 1001 726 1.6 6 4 2 7 9% 3832 122441 21818 77%
c -  1.07 25 126 0 2 519 37 2001 1539 2.2 9 4 2 7 16% 3846 122441 21818 77%
c d  1.22 25 178 0 2 585 40 2505 2001 2.4 10 4 2 7 19% 3853 122440 21816 77%
c u  1.24 25 178 0 2 585 40 2505 1840 2.4 10 4 2 7 19% 3860 122440 21816 77%
c v  1.26 25 178 0 2 585 40 2505 1459 2.4 10 4 2 7 19% 3862 122440 21816 77%
c w  1.29 25 178 0 2 585 40 2505 1434 2.4 10 4 2 7 19% 3862 122440 21816 77%
c x  1.32 25 178 0 2 585 40 2505 1434 2.4 10 4 2 7 19% 3864 122178 21816 77%
c t  1.34 25 178 0 2 585 40 2505 1434 2.4 10 4 2 7 19% 3862 122178 21816 77%
c f  1.37 25 178 0 2 585 40 2505 1434 2.4 10 4 2 7 19% 3920 122040 21846 78%
c c  1.48 23 178 0 2 585 40 2505 1434 2.4 10 4 2 7 19% 3924 122036 21844 78%
c d  1.49 23 178 0 2 585 40 2505 1434 2.4 10 4 2 7 19% 3920 122036 21844 78%
c
c  seconds   switched   rate       size/glue tier1    binary          remaining
c         MB  reductions conflicts       size  tier2     irredundant
c           level restarts    redundant    glue   trail          variables
c
c u  1.51 23 178 0 2 585 40 2505 1400 2.4 10 4 2 7 19% 3918 122036 21844 78%
c v  1.53 23 178 0 2 585 40 2505 1357 2.4 10 4 2 7 19% 3918 122036 21844 78%
c w  1.55 25 178 0 2 585 40 2505 1346 2.4 10 4 2 7 19% 3918 122036 21844 78%
c x  1.58 25 178 0 2 585 40 2505 1346 2.4 10 4 2 7 19% 3920 122024 21844 78%
c =  1.66 25 178 0 2 585 40 2505 1346 2.4 10 4 2 7 19% 3940 122022 21834 78%
c d  1.66 25 178 0 2 585 40 2505 1346 2.4 10 4 2 7 19% 3914 122022 21834 78%
c f  1.70 25 178 0 2 585 40 2505 1346 2.4 10 4 2 7 19% 3941 121979 21848 78%
c -  2.05 25 200 0 3 732 43 3416 1951 2.9 13 5 2 7 21% 3990 121978 21848 78%
c -  2.57 25 249 0 4 1006 44 5148 3188 2.9 14 5 2 8 22% 4028 121978 21848 78%
c -  3.29 25 247 0 5 1296 45 7148 4346 3.4 20 6 2 8 23% 4083 121976 21848 78%
c d  3.45 25 243 0 5 1340 43 7715 4793 3.4 20 6 2 8 23% 4062 121976 21824 77%
c u  3.48 25 243 0 5 1340 43 7715 4344 3.4 20 6 2 8 23% 4065 121976 21824 77%
c v  3.52 25 243 0 5 1340 43 7715 3647 3.4 20 6 2 8 23% 4066 121976 21824 77%
c w  3.58 25 243 0 5 1340 43 7715 3625 3.4 20 6 2 8 23% 4066 121976 21824 77%
c =  3.76 25 243 0 5 1340 43 7715 3625 3.4 20 6 2 8 23% 4662 121976 21526 76%
c d  3.77 25 243 0 5 1340 43 7715 3611 3.4 20 6 2 8 23% 4058 121976 21526 76%
c t  3.79 25 243 0 5 1340 43 7715 3611 3.4 20 6 2 8 23% 4046 121976 21526 76%
c f  3.84 25 243 0 5 1340 43 7715 3611 3.4 20 6 2 8 23% 4079 121917 21543 76%
c u  3.88 25 243 0 5 1340 43 7715 3543 3.4 20 6 2 8 23% 4079 121917 21543 76%
c v  3.90 25 243 0 5 1340 43 7715 3432 3.4 20 6 2 8 23% 4079 121917 21543 76%
c
c  seconds   switched    rate       size/glue tier1    binary          remaining
c         MB  reductions  conflicts       size  tier2     irredundant
c           level  restarts    redundant    glue   trail          variables
c
c w  3.96 25 243 0 5 1340 43 7715 3422 3.4 20 6 2 8 23% 4079 121917 21543 76%
c x  4.01 25 243 0 5 1340 43 7715 3422 3.4 20 6 2 8 23% 4084 121139 21543 76%
c =  4.20 25 243 0 5 1340 43 7715 3422 3.4 20 6 2 8 23% 4852 121139 21159 75%
c d  4.21 25 243 0 5 1340 43 7715 3399 3.4 20 6 2 8 23% 4067 121139 21159 75%
c t  4.23 25 243 0 5 1340 43 7715 3399 3.4 20 6 2 8 23% 4054 121139 21159 75%
c f  4.28 25 243 0 5 1340 43 7715 3399 3.4 20 6 2 8 23% 4171 120962 21218 75%
c -  4.82 25 267 0 6 1490 44 9385 4307 3.7 22 6 2 8 23% 4251 120960 21218 75%
c o  4.94 25 277 0 6 1526 44 10003 4797 3.7 22 6 2 8 23% 4308 120958 21218 75%
c -  5.63 25 277 0 7 1715 42 11834 5832 3.6 25 7 2 8 24% 4345 120958 21218 75%
c s  5.77 25 295 0 7 1740 41 12525 6442 3.6 24 7 2 8 24% 4379 117052 21218 75%
c e  5.90 25 295 0 7 1740 41 12525 6442 3.6 24 7 2 8 24% 3603 117592 20613 73%
c s  5.91 25 295 0 7 1740 41 12525 6442 3.6 24 7 2 8 24% 3604 117216 20613 73%
c e  5.93 25 295 0 7 1740 41 12525 6442 3.6 24 7 2 8 24% 3536 117261 20566 73%
c ^  5.93 25 295 0 7 1740 41 12525 6442 3.6 24 7 2 8 24% 3536 117261 20566 73%
c -  6.34 25 283 0 8 1847 39 14480 7157 3.6 24 7 2 7 23% 3582 117260 20566 73%
c c  6.79 25 283 0 8 1940 38 15804 8341 3.6 24 7 2 7 23% 3630 117189 20553 73%
c d  6.80 25 283 0 8 1940 38 15804 8337 3.6 24 7 2 7 23% 3604 117189 20553 73%
c u  6.85 25 283 0 8 1940 38 15804 7464 3.6 24 7 2 7 23% 3610 117189 20553 73%
c v  6.90 25 283 0 8 1940 38 15804 6478 3.6 24 7 2 7 23% 3612 117189 20553 73%
c w  6.97 25 283 0 8 1940 38 15804 6476 3.6 24 7 2 7 23% 3612 117189 20553 73%
c
c  seconds   switched    rate        size/glue tier1    binary          remaining
c         MB  reductions   conflicts       size  tier2     irredundant
c           level  restarts     redundant    glue   trail          variables
c
c x  7.01 25 283 0 8 1940 38 15804 6476 3.6 24 7 2 7 23% 3640 116819 20553 73%
c =  7.21 25 283 0 8 1940 38 15804 6476 3.6 24 7 2 7 23% 4286 116819 20230 72%
c d  7.22 25 283 0 8 1940 38 15804 6466 3.6 24 7 2 7 23% 3626 116819 20229 72%
c t  7.24 25 283 0 8 1940 38 15804 6466 3.6 24 7 2 7 23% 3561 116819 20229 72%
c f  7.29 25 283 0 8 1940 38 15804 6466 3.6 24 7 2 7 23% 3574 116747 20253 72%
c u  7.35 25 283 0 8 1940 38 15804 6274 3.6 24 7 2 7 23% 3577 116747 20253 72%
c v  7.38 25 283 0 8 1940 38 15804 6149 3.6 24 7 2 7 23% 3577 116747 20253 72%
c w  7.46 25 283 0 8 1940 38 15804 6103 3.6 24 7 2 7 23% 3577 116747 20253 72%
c x  7.49 25 283 0 8 1940 38 15804 6103 3.6 24 7 2 7 23% 3608 115596 20253 72%
c =  7.70 25 283 0 8 1940 38 15804 6103 3.6 24 7 2 7 23% 4080 115596 20017 71%
c d  7.71 25 283 0 8 1940 38 15804 6086 3.6 24 7 2 7 23% 3600 115596 20017 71%
c t  7.73 25 283 0 8 1940 38 15804 6086 3.6 24 7 2 7 23% 3555 115596 20017 71%
c f  7.78 25 283 0 8 1940 38 15804 6086 3.6 24 7 2 7 23% 3561 115579 20022 71%
c -  8.25 25 291 0 9 2066 38 17308 6740 3.6 25 7 2 7 24% 3585 115579 20022 71%
c o  8.84 25 286 0 9 2208 36 20085 9106 3.6 24 7 2 7 24% 3662 115578 20022 71%
c -  8.98 25 285 0 10 2261 36 20308 8377 3.6 25 7 2 7 24% 3662 115578 20022 71%
c - 10.08 25 281 0 11 2588 36 23470 9940 3.7 26 7 2 7 25% 3727 115577 20022 71%
c s 10.53 25 274 0 11 2694 35 25042 11345 3.7 26 7 2 7 24% 3748 113237 20022 71%
c e 10.66 25 274 0 11 2694 35 25042 11345 3.7 26 7 2 7 24% 3191 113900 19541 69%
c 2 10.66 25 274 0 11 2694 35 25042 11345 3.7 26 7 2 7 24% 3190 113900 19541 69%
c
c  seconds   switched     rate         size/glue tier1    binary          remaining
c         MB   reductions   conflicts        size  tier2     irredundant
c           level   restarts      redundant    glue   trail          variables
c
c s 10.66 25 274 0 11 2694 35 25042 11345 3.7 26 7 2 7 24% 3232 113537 19541 69%
c e 10.68 25 274 0 11 2694 35 25042 11345 3.7 26 7 2 7 24% 3227 113544 19538 69%
c ^ 10.68 25 274 0 11 2694 35 25042 11345 3.7 26 7 2 7 24% 3227 113544 19538 69%
c - 11.06 25 265 0 12 2798 34 26786 10753 3.7 26 7 2 7 24% 3248 113544 19538 69%
c d 11.15 25 264 0 12 2826 34 26942 10866 3.7 26 7 2 7 24% 3246 113544 19533 69%
c u 11.21 25 264 0 12 2826 34 26942 9687 3.7 26 7 2 7 24% 3257 113544 19533 69%
c v 11.27 25 264 0 12 2826 34 26942 8660 3.7 26 7 2 7 24% 3258 113544 19533 69%
c w 11.31 25 264 0 12 2826 34 26942 8651 3.7 26 7 2 7 24% 3258 113544 19533 69%
c x 11.37 25 264 0 12 2826 34 26942 8651 3.7 26 7 2 7 24% 3266 113450 19533 69%
c = 11.66 25 264 0 12 2826 34 26942 8651 3.7 26 7 2 7 24% 7494 113446 17419 62%
c d 11.68 25 264 0 12 2826 34 26942 8461 3.7 26 7 2 7 24% 3130 113446 17419 62%
c t 11.69 25 264 0 12 2826 34 26942 8461 3.7 26 7 2 7 24% 3033 113446 17419 62%
c f 11.77 25 264 0 12 2826 34 26942 8461 3.7 26 7 2 7 24% 3067 113320 17446 62%
c u 11.83 25 264 0 12 2826 34 26942 8053 3.7 26 7 2 7 24% 3070 113320 17446 62%
c v 11.87 25 264 0 12 2826 34 26942 7853 3.7 26 7 2 7 24% 3071 113320 17446 62%
c w 11.91 25 264 0 12 2826 34 26942 7849 3.7 26 7 2 7 24% 3071 113320 17446 62%
c = 12.21 25 264 0 12 2826 34 26942 7849 3.7 26 7 2 7 24% 6673 113320 15645 56%
c d 12.21 25 264 0 12 2826 34 26942 7832 3.7 26 7 2 7 24% 3059 113320 15645 56%
c t 12.23 25 264 0 12 2826 34 26942 7832 3.7 26 7 2 7 24% 2754 113320 15645 56%
c f 12.27 25 264 0 12 2826 34 26942 7832 3.7 26 7 2 7 24% 2826 113012 15715 56%
c
c  seconds   switched     rate        size/glue tier1    binary          remaining
c         MB   reductions   conflicts       size  tier2     irredundant
c           level   restarts     redundant    glue   trail          variables
c
c - 12.87 25 274 0 13 3014 33 30251 9862 3.7 25 7 2 6 24% 2889 113010 15715 56%
c - 13.42 25 277 0 14 3185 31 33856 11843 3.6 24 7 2 6 24% 2968 113010 15715 56%
c - 14.17 25 272 0 15 3455 30 37599 13606 3.5 24 7 2 6 24% 3059 113004 15715 56%
c o 14.76 25 265 0 15 3657 30 40085 15795 3.5 24 7 2 6 23% 3096 113004 15715 56%
c c 15.19 25 263 0 15 3781 30 41279 16872 3.5 24 7 2 6 24% 3180 112637 15653 56%
c d 15.20 25 263 0 15 3781 30 41279 16707 3.5 24 7 2 6 24% 3056 112637 15653 56%
c u 15.29 25 263 0 15 3781 30 41279 14919 3.5 24 7 2 6 24% 3065 112637 15653 56%
c v 15.36 25 263 0 15 3781 30 41279 14210 3.5 24 7 2 6 24% 3065 112637 15653 56%
c w 15.41 25 263 0 15 3781 30 41279 14210 3.5 24 7 2 6 24% 3065 112637 15653 56%
c x 15.46 25 263 0 15 3781 30 41279 14210 3.5 24 7 2 6 24% 3065 112624 15653 56%
c = 15.68 25 263 0 15 3781 30 41279 14210 3.5 24 7 2 6 24% 3073 112622 15649 56%
c d 15.69 25 263 0 15 3781 30 41279 14196 3.5 24 7 2 6 24% 3057 112622 15645 56%
c t 15.71 25 263 0 15 3781 30 41279 14196 3.5 24 7 2 6 24% 3040 112622 15645 56%
c f 15.72 25 263 0 15 3781 30 41279 14196 3.5 24 7 2 6 24% 3040 112618 15646 56%
c u 15.80 25 263 0 15 3781 30 41279 13573 3.5 24 7 2 6 24% 3049 112618 15646 56%
c v 15.86 25 263 0 15 3781 30 41279 12593 3.5 24 7 2 6 24% 3051 112618 15646 56%
c w 16.00 25 263 0 15 3781 30 41279 12589 3.5 24 7 2 6 24% 3051 112618 15646 56%
c = 16.24 25 263 0 15 3781 30 41279 12589 3.5 24 7 2 6 24% 3065 112618 15639 56%
c d 16.25 25 263 0 15 3781 30 41279 12582 3.5 24 7 2 6 24% 3050 112618 15639 56%
c t 16.27 25 263 0 15 3781 30 41279 12582 3.5 24 7 2 6 24% 3043 112618 15639 56%
c
c  seconds   switched     rate         size/glue tier1    binary          remaining
c         MB   reductions   conflicts        size  tier2     irredundant
c           level   restarts      redundant    glue   trail          variables
c
c - 16.38 25 262 0 16 3817 30 41471 11500 3.5 24 7 2 6 24% 3044 112618 15639 56%
c - 17.10 25 257 0 17 4254 30 45471 13569 3.5 24 7 2 6 24% 3091 112617 15639 56%
c - 17.65 25 248 0 18 4559 29 49594 15564 3.4 24 7 2 6 24% 3170 112616 15639 56%
c s 18.06 25 245 0 18 4800 29 52165 17876 3.4 24 7 2 6 24% 3209 88413 15639 56%
c e 18.13 25 245 0 18 4800 29 52165 17876 3.4 24 7 2 6 24% 2818 89162 15300 54%
c 2 18.13 25 245 0 18 4800 29 52165 17876 3.4 24 7 2 6 24% 2810 89162 15300 54%
c s 18.14 25 245 0 18 4800 29 52165 17876 3.4 24 7 2 6 24% 2815 88764 15300 54%
c e 18.14 25 245 0 18 4800 29 52165 17876 3.4 24 7 2 6 24% 2802 88780 15294 54%
c ^ 18.15 25 245 0 18 4800 29 52165 17876 3.4 24 7 2 6 24% 2802 88780 15294 54%
c - 18.31 25 241 0 19 4888 29 53836 16745 3.4 24 7 2 6 23% 2834 88780 15294 54%
c - 18.78 25 237 0 20 5233 28 58197 18317 3.4 24 7 2 5 23% 2953 88780 15294 54%
c c 18.88 25 239 0 20 5261 28 58917 18921 3.3 24 7 2 5 24% 3114 87890 15168 54%
c d 18.88 25 239 0 20 5261 28 58917 18306 3.3 24 7 2 5 24% 2862 87890 15168 54%
c u 18.93 25 239 0 20 5261 28 58917 15680 3.3 24 7 2 5 24% 2891 87890 15168 54%
c v 18.97 25 239 0 20 5261 28 58917 14257 3.3 24 7 2 5 24% 2896 87890 15168 54%
c w 19.01 25 239 0 20 5261 28 58917 14054 3.3 24 7 2 5 24% 2896 87890 15168 54%
c d 19.24 25 239 0 20 5261 28 58917 14035 3.3 24 7 2 5 24% 2864 87890 15152 54%
c t 19.25 25 239 0 20 5261 28 58917 14035 3.3 24 7 2 5 24% 2847 87890 15152 54%
c f 19.27 25 239 0 20 5261 28 58917 14035 3.3 24 7 2 5 24% 2862 87814 15162 54%
c c 19.31 25 239 0 20 5261 28 58917 13991 3.3 24 7 2 5 24% 2881 87745 15152 54%
c
c  seconds   switched     rate         size/glue tier1    binary         remaining
c         MB   reductions   conflicts        size  tier2     irredundant
c           level   restarts      redundant    glue   trail         variables
c
c d 19.31 25 239 0 20 5261 28 58917 13991 3.3 24 7 2 5 24% 2861 87745 15152 54%
c u 19.35 25 239 0 20 5261 28 58917 13391 3.3 24 7 2 5 24% 2864 87745 15152 54%
c v 19.38 25 239 0 20 5261 28 58917 13118 3.3 24 7 2 5 24% 2865 87745 15152 54%
c w 19.41 25 239 0 20 5261 28 58917 13039 3.3 24 7 2 5 24% 2865 87745 15152 54%
c x 19.45 25 239 0 20 5261 28 58917 13034 3.3 24 7 2 5 24% 2866 87480 15152 54%
c d 19.46 25 239 0 20 5261 28 58917 13032 3.3 24 7 2 5 24% 2862 87480 15150 54%
c t 19.47 25 239 0 20 5261 28 58917 13032 3.3 24 7 2 5 24% 2854 87480 15150 54%
c - 19.83 25 236 0 21 5511 27 62669 14872 3.3 24 7 2 5 23% 2924 87480 15150 54%
c - 20.40 25 231 0 22 5935 27 67251 17382 3.3 24 7 2 5 23% 2989 87480 15150 54%
c o 20.68 25 226 0 22 6100 26 70099 19846 3.3 23 7 2 5 23% 3042 87480 15150 54%
c - 21.01 25 224 0 23 6313 27 71941 17568 3.3 24 7 1 5 24% 3064 87480 15150 54%
c - 21.43 25 218 0 24 6550 25 76737 18213 3.2 23 7 1 5 23% 3135 87480 15150 54%
c d 21.87 25 220 0 24 6818 26 79976 20873 3.2 23 7 1 5 24% 3008 87480 15048 53%
c u 21.91 25 220 0 24 6818 26 79976 19116 3.2 23 7 1 5 24% 3021 87480 15048 53%
c v 21.99 25 220 0 24 6818 26 79976 16512 3.2 23 7 1 5 24% 3033 87480 15048 53%
c w 22.11 25 220 0 24 6818 26 79976 16492 3.2 23 7 1 5 24% 3033 87480 15048 53%
c = 22.24 25 220 0 24 6818 26 79976 16492 3.2 23 7 1 5 24% 3557 87472 14786 53%
c d 22.24 25 220 0 24 6818 26 79976 16268 3.2 23 7 1 5 24% 2970 87472 14779 52%
c t 22.25 25 220 0 24 6818 26 79976 16268 3.2 23 7 1 5 24% 2915 87472 14779 52%
c f 22.27 25 220 0 24 6818 26 79976 16268 3.2 23 7 1 5 24% 2924 87418 14785 52%
c
c  seconds   switched     rate         size/glue tier1    binary         remaining
c         MB   reductions   conflicts        size  tier2     irredundant
c           level   restarts      redundant    glue   trail         variables
c
c c 22.31 25 220 0 24 6818 26 79976 16220 3.2 23 7 1 5 24% 2963 87261 14764 52%
c d 22.31 25 220 0 24 6818 26 79976 16220 3.2 23 7 1 5 24% 2921 87261 14764 52%
c u 22.35 25 220 0 24 6818 26 79976 15795 3.2 23 7 1 5 24% 2926 87261 14764 52%
c v 22.39 25 220 0 24 6818 26 79976 15239 3.2 23 7 1 5 24% 2931 87261 14764 52%
c w 22.46 25 220 0 24 6818 26 79976 15155 3.2 23 7 1 5 24% 2931 87261 14764 52%
c x 22.49 25 220 0 24 6818 26 79976 15154 3.2 23 7 1 5 24% 2931 87238 14764 52%
c = 22.78 25 220 0 24 6818 26 79976 15154 3.2 23 7 1 5 24% 3289 87238 14585 52%
c d 22.79 25 220 0 24 6818 26 79976 15088 3.2 23 7 1 5 24% 2888 87238 14585 52%
c t 22.79 25 220 0 24 6818 26 79976 15088 3.2 23 7 1 5 24% 2834 87238 14585 52%
c f 22.81 25 220 0 24 6818 26 79976 15088 3.2 23 7 1 5 24% 2841 87208 14589 52%
c - 23.02 25 219 0 25 6971 26 81635 14106 3.2 23 7 1 5 24% 2860 87207 14589 52%
c - 23.57 25 213 0 26 7347 25 86638 16073 3.2 23 7 1 5 24% 2904 87207 14589 52%
c - 24.19 25 213 0 27 7800 25 91737 17869 3.2 23 7 1 5 24% 2947 87202 14589 52%
c s 24.72 25 210 0 27 8140 25 95827 21580 3.2 23 7 1 5 24% 2972 84306 14589 52%
c e 24.80 25 210 0 27 8140 25 95827 21580 3.2 23 7 1 5 24% 1913 86838 14072 50%
c 2 24.80 25 210 0 27 8140 25 95827 21580 3.2 23 7 1 5 24% 1911 86838 14072 50%
c s 24.80 25 210 0 27 8140 25 95827 21580 3.2 23 7 1 5 24% 1929 86235 14072 50%
c e 24.81 25 210 0 27 8140 25 95827 21580 3.2 23 7 1 5 24% 1895 86310 14053 50%
c ^ 24.81 25 210 0 27 8140 25 95827 21580 3.2 23 7 1 5 24% 1895 86310 14053 50%
c - 24.98 25 209 0 28 8242 25 96933 17707 3.2 23 7 1 5 24% 1904 86310 14053 50%
c
c  seconds   switched     rate          size/glue tier1    binary         remaining
c         MB   reductions   conflicts         size  tier2     irredundant
c           level   restarts       redundant    glue   trail         variables
c
c - 25.69 25 204 0 29 8781 24 102225 19284 3.2 23 7 1 5 24% 1951 86309 14053 50%
c c 25.97 25 205 0 29 8938 24 104588 21302 3.2 23 7 1 5 24% 1988 86226 14041 50%
c d 25.98 25 205 0 29 8938 24 104588 21233 3.2 23 7 1 5 24% 1964 86226 14041 50%
c u 26.02 25 205 0 29 8938 24 104588 19666 3.2 23 7 1 5 24% 1977 86226 14041 50%
c v 26.09 25 205 0 29 8938 24 104588 16876 3.2 23 7 1 5 24% 1987 86226 14041 50%
c w 26.21 25 205 0 29 8938 24 104588 16464 3.2 23 7 1 5 24% 1987 86226 14041 50%
c = 26.58 25 205 0 29 8938 24 104588 16464 3.2 23 7 1 5 24% 2107 86226 13981 50%
c d 26.58 25 205 0 29 8938 24 104588 16419 3.2 23 7 1 5 24% 1972 86226 13981 50%
c t 26.59 25 205 0 29 8938 24 104588 16419 3.2 23 7 1 5 24% 1936 86226 13981 50%
c f 26.62 25 205 0 29 8938 24 104588 16419 3.2 23 7 1 5 24% 1958 86118 13990 50%
c u 26.67 25 205 0 29 8938 24 104588 15965 3.2 23 7 1 5 24% 1961 86118 13990 50%
c v 26.71 25 205 0 29 8938 24 104588 15277 3.2 23 7 1 5 24% 1965 86118 13990 50%
c w 26.82 25 205 0 29 8938 24 104588 15097 3.2 23 7 1 5 24% 1965 86118 13990 50%
c t 27.11 25 205 0 29 8938 24 104588 15097 3.2 23 7 1 5 24% 1959 86118 13990 50%
c - 27.59 25 204 0 30 9253 24 107610 15510 3.2 24 7 1 5 25% 1985 86116 13990 50%
c o 28.00 25 202 0 30 9552 24 110152 17874 3.2 24 8 1 5 25% 1994 86116 13990 50%
c - 28.49 25 202 0 31 9896 25 113088 18039 3.2 25 8 1 5 25% 2007 86116 13990 50%
c - 29.09 25 197 0 32 10252 24 118659 20064 3.2 24 8 1 5 25% 2034 86115 13990 50%
c - 29.79 25 196 0 33 10629 24 124315 21554 3.2 25 8 1 5 25% 2078 86115 13990 50%
c - 30.52 25 190 0 34 11091 23 130061 22800 3.2 25 8 1 5 25% 2108 86115 13990 50%
c
c  seconds   switched      rate          size/glue tier1    binary         remaining
c         MB   reductions    conflicts         size  tier2     irredundant
c           level   restarts        redundant    glue   trail         variables
c
c c 30.85 25 188 0 34 11260 23 132829 25342 3.2 25 8 1 5 25% 2141 86059 13980 50%
c d 30.86 25 188 0 34 11260 23 132829 25301 3.2 25 8 1 5 25% 2121 86059 13980 50%
c u 30.91 25 188 0 34 11260 23 132829 23397 3.2 25 8 1 5 25% 2140 86059 13980 50%
c v 30.99 25 188 0 34 11260 23 132829 20148 3.2 25 8 1 5 25% 2146 86059 13980 50%
c w 31.07 25 188 0 34 11260 23 132829 20129 3.2 25 8 1 5 25% 2146 86059 13980 50%
c x 31.14 25 188 0 34 11260 23 132829 20121 3.2 25 8 1 5 25% 2196 85048 13980 50%
c d 31.14 25 188 0 34 11260 23 132829 20121 3.2 25 8 1 5 25% 2192 85048 13978 50%
c t 31.15 25 188 0 34 11260 23 132829 20121 3.2 25 8 1 5 25% 2150 85048 13978 50%
c u 31.21 25 188 0 34 11260 23 132829 19623 3.2 25 8 1 5 25% 2157 85048 13978 50%
c v 31.25 25 188 0 34 11260 23 132829 18962 3.2 25 8 1 5 25% 2159 85048 13978 50%
c w 31.39 25 188 0 34 11260 23 132829 18574 3.2 25 8 1 5 25% 2159 85048 13978 50%
c d 31.74 25 188 0 34 11260 23 132829 18572 3.2 25 8 1 5 25% 2157 85048 13977 50%
c - 32.07 25 187 0 35 11442 23 135892 18638 3.2 25 8 1 5 25% 2164 85048 13977 50%
c - 32.75 25 183 0 36 11835 22 141808 20871 3.2 25 8 1 5 25% 2209 85048 13977 50%
c - 33.67 25 181 0 37 12299 22 147808 22845 3.2 25 8 1 5 26% 2247 85048 13977 50%
c - 34.53 25 177 0 38 12693 22 153890 24432 3.2 25 8 1 5 26% 2291 85047 13977 50%
c s 34.84 25 174 0 38 12797 21 157885 28024 3.1 25 8 1 5 26% 2335 84839 13977 50%
c e 34.95 25 174 0 38 12797 21 157885 28024 3.1 25 8 1 5 26% 1786 97602 12322 44%
c s 34.97 25 174 0 38 12797 21 157885 28024 3.1 25 8 1 5 26% 1804 94510 12322 44%
c e 34.99 25 174 0 38 12797 21 157885 28024 3.1 25 8 1 5 26% 1719 94725 12276 44%
c
c  seconds   switched      rate          size/glue tier1    binary         remaining
c         MB   reductions    conflicts         size  tier2     irredundant
c           level   restarts        redundant    glue   trail         variables
c
c ^ 34.99 25 174 0 38 12797 21 157885 28024 3.1 25 8 1 5 26% 1719 94725 12276 44%
c - 35.24 25 172 0 39 12908 21 160056 19426 3.1 25 8 1 5 25% 1743 94725 12276 44%
c o 35.26 25 172 0 39 12916 21 160182 19546 3.1 25 8 1 5 25% 1743 94725 12276 44%
c d 35.80 25 169 0 39 13226 21 164800 23670 3.1 25 8 1 5 25% 1755 94725 12271 44%
c u 35.84 25 169 0 39 13226 21 164800 21486 3.1 25 8 1 5 25% 1778 94725 12271 44%
c v 35.90 25 169 0 39 13226 21 164800 18773 3.1 25 8 1 5 25% 1786 94725 12271 44%
c w 36.00 25 169 0 39 13226 21 164800 18766 3.1 25 8 1 5 25% 1786 94725 12271 44%
c x 36.07 25 169 0 39 13226 21 164800 18760 3.1 25 8 1 5 25% 1829 94423 12271 44%
c d 36.08 25 169 0 39 13226 21 164800 18750 3.1 25 8 1 5 25% 1819 94423 12266 44%
c t 36.09 25 169 0 39 13226 21 164800 18750 3.1 25 8 1 5 25% 1749 94423 12266 44%
c f 36.17 25 169 0 39 13226 21 164800 18750 3.1 25 8 1 5 25% 1748 94386 12268 44%
c c 36.20 25 169 0 39 13226 21 164800 18719 3.1 25 8 1 5 25% 1790 94247 12253 44%
c d 36.20 25 169 0 39 13226 21 164800 18719 3.1 25 8 1 5 25% 1760 94247 12253 44%
c u 36.24 25 169 0 39 13226 21 164800 18315 3.1 25 8 1 5 25% 1770 94247 12253 44%
c v 36.29 25 169 0 39 13226 21 164800 17761 3.1 25 8 1 5 25% 1777 94247 12253 44%
c w 36.41 25 169 0 39 13226 21 164800 17635 3.1 25 8 1 5 25% 1777 94247 12253 44%
c x 36.47 25 169 0 39 13226 21 164800 17635 3.1 25 8 1 5 25% 1777 94221 12253 44%
c d 36.47 25 169 0 39 13226 21 164800 17629 3.1 25 8 1 5 25% 1771 94221 12250 43%
c t 36.48 25 169 0 39 13226 21 164800 17629 3.1 25 8 1 5 25% 1770 94221 12250 43%
c - 36.60 25 168 0 40 13287 20 166300 16272 3.1 25 8 1 5 25% 1776 94221 12250 43%
c
c  seconds   switched      rate          size/glue tier1    binary         remaining
c         MB   reductions    conflicts         size  tier2     irredundant
c           level   restarts        redundant    glue   trail         variables
c
c - 37.18 25 165 0 41 13674 20 172624 18885 3.1 25 8 1 5 25% 1804 94220 12250 43%
c - 37.95 25 163 0 42 14163 20 179028 21237 3.1 25 8 1 5 26% 1825 94220 12250 43%
c - 38.53 25 161 0 43 14556 20 185508 22761 3.0 24 8 1 5 26% 1860 94219 12250 43%
c - 39.22 25 159 0 44 15005 20 192066 23976 3.0 24 8 1 5 26% 1887 94219 12250 43%
c - 39.81 25 156 0 45 15350 19 198699 25149 3.0 24 8 1 5 26% 1912 94218 12250 43%
c d 40.05 26 155 0 45 15512 19 200579 26880 3.0 24 8 1 5 26% 1877 94216 12231 43%
c u 40.10 26 155 0 45 15512 19 200579 25013 3.0 24 8 1 5 26% 1904 94216 12231 43%
c v 40.18 26 155 0 45 15512 19 200579 21501 3.0 24 8 1 5 26% 1916 94216 12231 43%
c w 40.30 26 155 0 45 15512 19 200579 21130 3.0 24 8 1 5 26% 1916 94216 12231 43%
c d 40.69 26 155 0 45 15512 19 200579 21123 3.0 24 8 1 5 26% 1906 94216 12226 43%
c t 40.69 26 155 0 45 15512 19 200579 21123 3.0 24 8 1 5 26% 1901 94216 12226 43%
c c 40.73 26 155 0 45 15512 19 200579 21123 3.0 24 8 1 5 26% 1927 94050 12210 43%
c d 40.74 26 155 0 45 15512 19 200579 21100 3.0 24 8 1 5 26% 1895 94050 12210 43%
c u 40.78 26 155 0 45 15512 19 200579 20643 3.0 24 8 1 5 26% 1901 94050 12210 43%
c v 40.83 26 155 0 45 15512 19 200579 19740 3.0 24 8 1 5 26% 1906 94050 12210 43%
c w 40.93 26 155 0 45 15512 19 200579 19543 3.0 24 8 1 5 26% 1906 94050 12210 43%
c x 40.99 26 155 0 45 15512 19 200579 19543 3.0 24 8 1 5 26% 1908 94026 12210 43%
c d 40.99 26 155 0 45 15512 19 200579 19534 3.0 24 8 1 5 26% 1898 94026 12205 43%
c t 41.00 26 155 0 45 15512 19 200579 19534 3.0 24 8 1 5 26% 1896 94026 12205 43%
c - 41.53 26 154 0 46 15873 19 205407 20560 2.9 24 8 1 5 26% 1915 94025 12205 43%
c
c  seconds   switched      rate          size/glue tier1    binary         remaining
c         MB   reductions    conflicts         size  tier2     irredundant
c           level   restarts        redundant    glue   trail         variables
c
c - 42.28 26 153 0 47 16345 19 212190 23290 2.9 24 8 1 5 26% 1938 94025 12205 43%
c - 42.91 26 150 0 48 16777 18 219046 25206 2.9 24 8 1 5 26% 1959 94025 12205 43%
c o 42.96 26 149 0 48 16809 18 220187 26235 2.9 24 8 1 5 26% 1962 94025 12205 43%
c - 43.50 26 147 0 49 17138 18 225974 26578 2.9 24 8 1 5 26% 1989 94025 12205 43%
c - 44.39 26 145 0 50 17752 18 232974 27635 2.9 24 8 1 5 26% 2021 94023 12205 43%
c s 45.13 26 143 0 50 18253 18 239988 34212 2.9 24 8 1 5 27% 2045 93678 12205 43%
c e 45.27 26 143 0 50 18253 18 239988 34212 2.9 24 8 1 5 27% 1611 110914 10946 39%
c 2 45.27 26 143 0 50 18253 18 239988 34212 2.9 24 8 1 5 27% 1605 110914 10946 39%
c s 45.29 26 143 0 50 18253 18 239988 34212 2.9 24 8 1 5 27% 1617 105274 10946 39%
c e 45.34 26 143 0 50 18253 18 239988 34212 2.9 24 8 1 5 27% 1567 105691 10913 39%
c ! 45.34 26 143 0 50 18253 18 239988 34212 2.9 24 8 1 5 27% 1567 105691 10913 39%
c - 45.36 28 143 0 51 18256 18 240045 21787 2.9 24 8 1 5 27% 1567 105691 10913 39%
c c 45.40 28 143 0 51 18266 18 240232 21959 2.8 24 8 1 5 27% 1593 105549 10899 39%
c d 45.40 28 143 0 51 18266 18 240232 21927 2.8 24 8 1 5 27% 1565 105549 10899 39%
c u 45.45 28 143 0 51 18266 18 240232 19632 2.8 24 8 1 5 27% 1576 105549 10899 39%
c v 45.51 28 143 0 51 18266 18 240232 16323 2.8 24 8 1 5 27% 1579 105549 10899 39%
c w 45.53 28 143 0 51 18266 18 240232 16079 2.8 24 8 1 5 27% 1579 105549 10899 39%
c d 45.53 28 143 0 51 18266 18 240232 16077 2.8 24 8 1 5 27% 1575 105549 10897 39%
c t 45.54 28 143 0 51 18266 18 240232 16077 2.8 24 8 1 5 27% 1564 105549 10897 39%
c f 45.63 28 143 0 51 18266 18 240232 16077 2.8 24 8 1 5 27% 1576 105430 10903 39%
c
c  seconds   switched      rate          size/glue tier1    binary          remaining
c         MB   reductions    conflicts         size  tier2     irredundant
c           level   restarts        redundant    glue   trail          variables
c
c u 45.69 28 143 0 51 18266 18 240232 15906 2.8 24 8 1 5 27% 1579 105430 10903 39%
c v 45.73 28 143 0 51 18266 18 240232 15430 2.8 24 8 1 5 27% 1580 105430 10903 39%
c w 45.74 28 143 0 51 18266 18 240232 15358 2.8 24 8 1 5 27% 1580 105430 10903 39%
c t 45.75 28 143 0 51 18266 18 240232 15358 2.8 24 8 1 5 27% 1578 105430 10903 39%
c - 46.32 28 142 0 52 18611 18 247187 18669 2.8 23 8 1 5 27% 1595 105430 10903 39%
c - 46.96 28 140 0 53 19016 17 254399 21659 2.8 23 8 1 5 27% 1609 105430 10903 39%
c - 47.53 28 138 0 54 19357 17 261679 23558 2.8 23 8 1 5 26% 1640 105429 10903 39%
c - 48.11 28 139 0 55 19755 17 269028 25020 2.7 22 8 1 5 27% 1668 105428 10903 39%
c - 48.82 36 137 0 56 20235 16 276444 26359 2.7 22 8 1 5 27% 1684 105428 10903 39%
c d 49.33 35 134 0 56 20595 16 283864 32952 2.7 22 8 1 5 26% 1685 105421 10881 39%
c u 49.39 36 134 0 56 20595 16 283864 31275 2.7 22 8 1 5 26% 1713 105421 10881 39%
c v 49.47 36 134 0 56 20595 16 283864 28522 2.7 22 8 1 5 26% 1713 105421 10881 39%
c w 49.52 36 134 0 56 20595 16 283864 28499 2.7 22 8 1 5 26% 1713 105421 10881 39%
c x 49.60 36 134 0 56 20595 16 283864 28456 2.7 22 8 1 5 26% 1741 104072 10881 39%
c = 50.01 36 134 0 56 20595 16 283864 28456 2.7 22 8 1 5 26% 1801 104065 10851 39%
c d 50.01 36 134 0 56 20595 16 283864 28328 2.7 22 8 1 5 26% 1728 104065 10850 39%
c t 50.02 36 134 0 56 20595 16 283864 28328 2.7 22 8 1 5 26% 1716 104065 10850 39%
c c 50.07 28 134 0 56 20595 16 283864 28327 2.7 22 8 1 5 26% 1724 104057 10849 39%
c d 50.08 28 134 0 56 20595 16 283864 28327 2.7 22 8 1 5 26% 1722 104057 10849 39%
c u 50.13 28 134 0 56 20595 16 283864 27942 2.7 22 8 1 5 26% 1730 104057 10849 39%
c
c  seconds   switched      rate          size/glue tier1    binary          remaining
c         MB   reductions    conflicts         size  tier2     irredundant
c           level   restarts        redundant    glue   trail          variables
c
c v 50.21 28 134 0 56 20595 16 283864 24853 2.7 22 8 1 5 26% 1750 104057 10849 39%
c w 50.35 28 134 0 56 20595 16 283864 24504 2.7 22 8 1 5 26% 1741 104057 10849 39%
c d 50.36 28 134 0 56 20595 16 283864 24500 2.7 22 8 1 5 26% 1737 104057 10847 39%
c t 50.37 28 134 0 56 20595 16 283864 24500 2.7 22 8 1 5 26% 1732 104057 10847 39%
c - 50.39 28 134 0 57 20600 16 283927 20412 2.7 22 8 1 5 26% 1732 104057 10847 39%
c o 50.88 28 131 0 57 20924 16 290197 26113 2.7 22 8 1 5 26% 1754 104057 10847 39%
c - 50.99 28 131 0 58 21014 16 291476 22760 2.7 22 8 1 5 26% 1758 104057 10847 39%
c - 51.45 28 128 0 59 21323 15 299091 24795 2.6 21 8 1 5 25% 1789 104056 10847 39%
c - 52.03 36 126 0 60 21747 15 306774 26358 2.6 21 8 1 5 25% 1815 104055 10847 39%
c - 52.67 36 124 0 61 22206 15 314520 27826 2.6 21 8 1 5 25% 1851 104052 10847 39%
c - 53.20 36 123 0 62 22586 15 322331 28967 2.5 20 8 1 5 26% 1887 104051 10847 39%
c - 53.79 36 120 0 63 23015 14 330205 29970 2.5 20 8 1 5 25% 1921 104051 10847 39%
c d 53.91 36 120 0 63 23104 14 331520 31131 2.5 20 8 1 5 25% 1855 104050 10814 38%
c u 53.98 38 120 0 63 23104 14 331520 29070 2.5 20 8 1 5 25% 1877 104050 10814 38%
c v 54.06 34 120 0 63 23104 14 331520 26745 2.5 20 8 1 5 25% 1879 104050 10814 38%
c w 54.09 34 120 0 63 23104 14 331520 26675 2.5 20 8 1 5 25% 1879 104050 10814 38%
c x 54.15 34 120 0 63 23104 14 331520 26651 2.5 20 8 1 5 25% 1880 103819 10814 38%
c = 54.57 34 120 0 63 23104 14 331520 26651 2.5 20 8 1 5 25% 2090 103661 10703 38%
c d 54.57 34 120 0 63 23104 14 331520 26543 2.5 20 8 1 5 25% 1861 103660 10703 38%
c t 54.58 34 120 0 63 23104 14 331520 26543 2.5 20 8 1 5 25% 1821 103660 10703 38%
c
c  seconds   switched      rate          size/glue tier1    binary          remaining
c         MB   reductions    conflicts         size  tier2     irredundant
c           level   restarts        redundant    glue   trail          variables
c
c f 54.61 30 120 0 63 23104 14 331520 26543 2.5 20 8 1 5 25% 1827 103598 10706 38%
c u 54.67 34 120 0 63 23104 14 331520 26121 2.5 20 8 1 5 25% 1832 103598 10706 38%
c v 54.75 34 120 0 63 23104 14 331520 23420 2.5 20 8 1 5 25% 1850 103598 10706 38%
c w 54.78 34 120 0 63 23104 14 331520 23136 2.5 20 8 1 5 25% 1851 103598 10706 38%
c x 54.84 34 120 0 63 23104 14 331520 23134 2.5 20 8 1 5 25% 1851 103529 10706 38%
c = 55.25 34 120 0 63 23104 14 331520 23134 2.5 20 8 1 5 25% 2036 102838 10572 38%
c d 55.26 34 120 0 63 23104 14 331520 22587 2.5 20 8 1 5 25% 1870 102833 10572 38%
c t 55.27 34 120 0 63 23104 14 331520 22587 2.5 20 8 1 5 25% 1794 102833 10572 38%
c f 55.29 30 120 0 63 23104 14 331520 22587 2.5 20 8 1 5 25% 1795 102815 10573 38%
c i 55.33 34 120 0 63 23112 14 332113 23099 2.5 20 8 1 5 25% 1800 102812 10560 37%
c } 55.33 34 120 0 63 23115 14 332179 23147 2.5 20 8 1 5 25% 1803 102811 10549 37%
c 0 55.33 34 120 0 63 23115 14 332179 23147 2.5 20 8 1 5 25% 1803 102811 10549 37%
c
c ---- [ result ] ------------------------------------------------------------
c
s UNSATISFIABLE
c
c ---- [ profiling ] ---------------------------------------------------------
c
c          40.86   73.84 %  search
c          40.86   73.84 %  focused
c          13.87   25.07 %  simplify
c          13.20   23.86 %  probe
c           5.43    9.81 %  vivify
c           5.22    9.43 %  sweep
c           1.00    1.81 %  factor
c           0.96    1.74 %  eliminate
c           0.70    1.26 %  substitute
c           0.66    1.19 %  congruence
c           0.54    0.97 %  preprocess
c           0.31    0.56 %  reduce
c           0.23    0.42 %  fastel
c           0.14    0.26 %  subsume
c           0.12    0.21 %  transitive
c           0.08    0.14 %  backbone
c           0.04    0.07 %  lucky
c           0.02    0.04 %  parse
c =============================================
c          55.33  100.00 %  total
c
c ---- [ statistics ] --------------------------------------------------------
c
c chronological:                         8946                3 %  conflicts
c conflicts:                           332179             6003.27 per second
c congruent:                              303                1 %  variables
c decisions:                          5832806               17.56 per conflict
c eliminated:                           14449               51 %  variables
c factored:                              3386               12 %  variables
c fast_eliminated:                       9439               65 %  eliminated
c fast_strengthened:                      160                2 %  per strengthened
c fast_subsumed:                           51                0 %  per subsumed
c iterations:                               2                0 %  variables
c propagations:                     232931592          4209631    per second
c reductions:                              63             5273    interval
c reordered:                                8            41522    interval
c restarts:                             23115               14    interval
c strengthened:                         10573                0 %  checks
c substituted:                           6469               23 %  variables
c subsumed:                             44304                1 %  checks
c switched:                                 0                0    interval
c vivified:                            102830               14 %  checks
c
c ---- [ glue usage ] --------------------------------------------------------
c
c focused glue 1 used 603930 clauses 58.69% accumulated 58.69% tier1
c focused glue 2 used 196053 clauses 19.05% accumulated 77.75%
c focused glue 3 used  72277 clauses  7.02% accumulated 84.77%
c focused glue 4 used  38548 clauses  3.75% accumulated 88.52%
c focused glue 5 used  25007 clauses  2.43% accumulated 90.95% tier2
c
c ---- [ resources ] ---------------------------------------------------------
c
c maximum-resident-set-size:         40292352 bytes         38 MB
c process-time:                            55s              55.33 seconds
c
c ---- [ shutting down ] -----------------------------------------------------
c
c exit 20
